625442 1584949
30
18 988298 263130 419115
49 188304 814152 1852 
47 637006 402997 281955 
59 716769 485152 923819 
19 617738 271121 683838 
1 246526 138740 147987 
9 92449 116729 427817 
51 258523 102662 407642 
19 365792 826757 917447 
53 157260 919298 153900 
53 838646 952206 343348 
7 953710 783519 521954 
57 54639 205791 198340 
47 860883 862678 683479 
21 979406 627647 942247 
15 730309 349888 1100 
39 692996 918546 166546 
35 354195 836797 677224 
39 305355 536924 748254 
47 320442 786559 346862 
19 508701 61553 192596 
49 924230 392426 355618 
55 20072 297864 174267 
19 164103 175366 362831 
1 93911 45728 256410 
33 882525 449985 157297 
41 986908 421902 963294 
1 724812 826507 715133 
43 888060 907728 119447 
1 300153 475064 748628